File : Instances/p70
Used 70s
33138

0 0 0 0 0 1 0 1 0 0 0 0 1 1 0 0 0 0 0 1 1 1 0 0 0 0 1 1 1 0 
7 19 21 27 21 12 21 27 7 28 26 28 13 13 19 7 13 20 27 27 7 21 5 21 5 27 27 19 26 5 19 19 26 21 27 12 20 20 27 21 7 26 12 26 20 19 13 21 19 20 27 21 21 21 20 12 7 26 7 7 26 5 7 20 13 12 5 19 19 12 7 12 19 20 5 5 20 5 20 21 13 5 26 7 26 13 19 5 27 7 28 19 7 7 5 13 28 12 5 28 28 21 12 7 26 27 26 27 27 13 19 26 27 12 12 20 28 7 28 20 26 12 28 19 26 21 21 12 26 28 28 21 12 20 5 26 13 13 28 20 12 27 28 12 7 5 27 21 27 7 27 19 5 27 13 12 5 21 13 13 13 27 13 21 5 27 5 26 13 21 5 20 19 20 26 5 27 20 26 20 5 21 21 19 12 26 28 13 27 21 21 21 19 19 7 12 7 21 20 19 
